(set-option :produce-models true)
(set-logic QF_LRA)
(set-info :notes | Strip-packing problem.|)
(declare-fun x0 () Real)
(declare-fun y0 () Real)
(declare-fun x1 () Real)
(declare-fun y1 () Real)
(declare-fun x2 () Real)
(declare-fun y2 () Real)
(declare-fun x3 () Real)
(declare-fun y3 () Real)
(declare-fun x4 () Real)
(declare-fun y4 () Real)
(declare-fun x5 () Real)
(declare-fun y5 () Real)
(declare-fun x6 () Real)
(declare-fun y6 () Real)
(declare-fun x7 () Real)
(declare-fun y7 () Real)
(declare-fun x8 () Real)
(declare-fun y8 () Real)
(declare-fun x9 () Real)
(declare-fun y9 () Real)
(declare-fun x10 () Real)
(declare-fun y10 () Real)
(declare-fun x11 () Real)
(declare-fun y11 () Real)
(declare-fun x12 () Real)
(declare-fun y12 () Real)
(declare-fun x13 () Real)
(declare-fun y13 () Real)
(declare-fun x14 () Real)
(declare-fun y14 () Real)
(declare-fun z () Real)
(declare-fun c () Real)
(assert (and (= c z) (and (>= x0 0) 
(and (>= y0 0) 
(and (>= x1 0) 
(and (>= y1 0) 
(and (>= x2 0) 
(and (>= y2 0) 
(and (>= x3 0) 
(and (>= y3 0) 
(and (>= x4 0) 
(and (>= y4 0) 
(and (>= x5 0) 
(and (>= y5 0) 
(and (>= x6 0) 
(and (>= y6 0) 
(and (>= x7 0) 
(and (>= y7 0) 
(and (>= x8 0) 
(and (>= y8 0) 
(and (>= x9 0) 
(and (>= y9 0) 
(and (>= x10 0) 
(and (>= y10 0) 
(and (>= x11 0) 
(and (>= y11 0) 
(and (>= x12 0) 
(and (>= y12 0) 
(and (>= x13 0) 
(and (>= y13 0) 
(and (>= x14 0) 
(and (>= y14 0) 
(and (>= z 0) 
(and (>= c 0) 
(and (<= (+ x0 0.2377199175) z) 
(and (<= 0.9978939466 y0) 
(and (<= y0 1.0) 
(and (<= x0 (- 5.4993352609 0.2377199175)) 
(and (>= x0 0) 
(and (<= (+ x1 0.9061404132) z) 
(and (<= 0.9716525235 y1) 
(and (<= y1 1.0) 
(and (<= x1 (- 5.4993352609 0.9061404132)) 
(and (>= x1 0) 
(and (<= (+ x2 0.0985725424) z) 
(and (<= 0.969410017 y2) 
(and (<= y2 1.0) 
(and (<= x2 (- 5.4993352609 0.0985725424)) 
(and (>= x2 0) 
(and (<= (+ x3 0.9709592124) z) 
(and (<= 0.7783083337 y3) 
(and (<= y3 1.0) 
(and (<= x3 (- 5.4993352609 0.9709592124)) 
(and (>= x3 0) 
(and (<= (+ x4 0.236225381) z) 
(and (<= 0.7449309743 y4) 
(and (<= y4 1.0) 
(and (<= x4 (- 5.4993352609 0.236225381)) 
(and (>= x4 0) 
(and (<= (+ x5 0.0608508372) z) 
(and (<= 0.6187957623 y5) 
(and (<= y5 1.0) 
(and (<= x5 (- 5.4993352609 0.0608508372)) 
(and (>= x5 0) 
(and (<= (+ x6 0.7834006029) z) 
(and (<= 0.5778834244 y6) 
(and (<= y6 1.0) 
(and (<= x6 (- 5.4993352609 0.7834006029)) 
(and (>= x6 0) 
(and (<= (+ x7 0.1642348961) z) 
(and (<= 0.5672329321 y7) 
(and (<= y7 1.0) 
(and (<= x7 (- 5.4993352609 0.1642348961)) 
(and (>= x7 0) 
(and (<= (+ x8 0.5045649129) z) 
(and (<= 0.5505089352 y8) 
(and (<= y8 1.0) 
(and (<= x8 (- 5.4993352609 0.5045649129)) 
(and (>= x8 0) 
(and (<= (+ x9 0.5621124063) z) 
(and (<= 0.5041877586 y9) 
(and (<= y9 1.0) 
(and (<= x9 (- 5.4993352609 0.5621124063)) 
(and (>= x9 0) 
(and (<= (+ x10 0.974554139) z) 
(and (<= 0.4585875272 y10) 
(and (<= y10 1.0) 
(and (<= x10 (- 5.4993352609 0.974554139)) 
(and (>= x10 0) 
(and (<= (+ x11 0.5546128059) z) 
(and (<= 0.2784599677 y11) 
(and (<= y11 1.0) 
(and (<= x11 (- 5.4993352609 0.5546128059)) 
(and (>= x11 0) 
(and (<= (+ x12 0.3484070273) z) 
(and (<= 0.2112766489 y12) 
(and (<= y12 1.0) 
(and (<= x12 (- 5.4993352609 0.3484070273)) 
(and (>= x12 0) 
(and (<= (+ x13 0.8656357559) z) 
(and (<= 0.1525662631 y13) 
(and (<= y13 1.0) 
(and (<= x13 (- 5.4993352609 0.8656357559)) 
(and (>= x13 0) 
(and (<= (+ x14 0.7712377787) z) 
(and (<= 0.0547293044 y14) 
(and (<= y14 1.0) 
(and (<= x14 (- 5.4993352609 0.7712377787)) 
(and (>= x14 0) 
(and (<= c 5.4993352609) 
(and (or (<= (+ x0 0.2377199175) x1) (or (<= (+ x1 0.9061404132) x0) (or (>= (- y0 0.9978939466) y1) (or (>= (- y1 0.9716525235) y0))))) 
(and (or (<= (+ x0 0.2377199175) x2) (or (<= (+ x2 0.0985725424) x0) (or (>= (- y0 0.9978939466) y2) (or (>= (- y2 0.969410017) y0))))) 
(and (or (<= (+ x0 0.2377199175) x3) (or (<= (+ x3 0.9709592124) x0) (or (>= (- y0 0.9978939466) y3) (or (>= (- y3 0.7783083337) y0))))) 
(and (or (<= (+ x0 0.2377199175) x4) (or (<= (+ x4 0.236225381) x0) (or (>= (- y0 0.9978939466) y4) (or (>= (- y4 0.7449309743) y0))))) 
(and (or (<= (+ x0 0.2377199175) x5) (or (<= (+ x5 0.0608508372) x0) (or (>= (- y0 0.9978939466) y5) (or (>= (- y5 0.6187957623) y0))))) 
(and (or (<= (+ x0 0.2377199175) x6) (or (<= (+ x6 0.7834006029) x0) (or (>= (- y0 0.9978939466) y6) (or (>= (- y6 0.5778834244) y0))))) 
(and (or (<= (+ x0 0.2377199175) x7) (or (<= (+ x7 0.1642348961) x0) (or (>= (- y0 0.9978939466) y7) (or (>= (- y7 0.5672329321) y0))))) 
(and (or (<= (+ x0 0.2377199175) x8) (or (<= (+ x8 0.5045649129) x0) (or (>= (- y0 0.9978939466) y8) (or (>= (- y8 0.5505089352) y0))))) 
(and (or (<= (+ x0 0.2377199175) x9) (or (<= (+ x9 0.5621124063) x0) (or (>= (- y0 0.9978939466) y9) (or (>= (- y9 0.5041877586) y0))))) 
(and (or (<= (+ x0 0.2377199175) x10) (or (<= (+ x10 0.974554139) x0) (or (>= (- y0 0.9978939466) y10) (or (>= (- y10 0.4585875272) y0))))) 
(and (or (<= (+ x0 0.2377199175) x11) (or (<= (+ x11 0.5546128059) x0) (or (>= (- y0 0.9978939466) y11) (or (>= (- y11 0.2784599677) y0))))) 
(and (or (<= (+ x0 0.2377199175) x12) (or (<= (+ x12 0.3484070273) x0) (or (>= (- y0 0.9978939466) y12) (or (>= (- y12 0.2112766489) y0))))) 
(and (or (<= (+ x0 0.2377199175) x13) (or (<= (+ x13 0.8656357559) x0) (or (>= (- y0 0.9978939466) y13) (or (>= (- y13 0.1525662631) y0))))) 
(and (or (<= (+ x0 0.2377199175) x14) (or (<= (+ x14 0.7712377787) x0) (or (>= (- y0 0.9978939466) y14) (or (>= (- y14 0.0547293044) y0))))) 
(and (or (<= (+ x1 0.9061404132) x2) (or (<= (+ x2 0.0985725424) x1) (or (>= (- y1 0.9716525235) y2) (or (>= (- y2 0.969410017) y1))))) 
(and (or (<= (+ x1 0.9061404132) x3) (or (<= (+ x3 0.9709592124) x1) (or (>= (- y1 0.9716525235) y3) (or (>= (- y3 0.7783083337) y1))))) 
(and (or (<= (+ x1 0.9061404132) x4) (or (<= (+ x4 0.236225381) x1) (or (>= (- y1 0.9716525235) y4) (or (>= (- y4 0.7449309743) y1))))) 
(and (or (<= (+ x1 0.9061404132) x5) (or (<= (+ x5 0.0608508372) x1) (or (>= (- y1 0.9716525235) y5) (or (>= (- y5 0.6187957623) y1))))) 
(and (or (<= (+ x1 0.9061404132) x6) (or (<= (+ x6 0.7834006029) x1) (or (>= (- y1 0.9716525235) y6) (or (>= (- y6 0.5778834244) y1))))) 
(and (or (<= (+ x1 0.9061404132) x7) (or (<= (+ x7 0.1642348961) x1) (or (>= (- y1 0.9716525235) y7) (or (>= (- y7 0.5672329321) y1))))) 
(and (or (<= (+ x1 0.9061404132) x8) (or (<= (+ x8 0.5045649129) x1) (or (>= (- y1 0.9716525235) y8) (or (>= (- y8 0.5505089352) y1))))) 
(and (or (<= (+ x1 0.9061404132) x9) (or (<= (+ x9 0.5621124063) x1) (or (>= (- y1 0.9716525235) y9) (or (>= (- y9 0.5041877586) y1))))) 
(and (or (<= (+ x1 0.9061404132) x10) (or (<= (+ x10 0.974554139) x1) (or (>= (- y1 0.9716525235) y10) (or (>= (- y10 0.4585875272) y1))))) 
(and (or (<= (+ x1 0.9061404132) x11) (or (<= (+ x11 0.5546128059) x1) (or (>= (- y1 0.9716525235) y11) (or (>= (- y11 0.2784599677) y1))))) 
(and (or (<= (+ x1 0.9061404132) x12) (or (<= (+ x12 0.3484070273) x1) (or (>= (- y1 0.9716525235) y12) (or (>= (- y12 0.2112766489) y1))))) 
(and (or (<= (+ x1 0.9061404132) x13) (or (<= (+ x13 0.8656357559) x1) (or (>= (- y1 0.9716525235) y13) (or (>= (- y13 0.1525662631) y1))))) 
(and (or (<= (+ x1 0.9061404132) x14) (or (<= (+ x14 0.7712377787) x1) (or (>= (- y1 0.9716525235) y14) (or (>= (- y14 0.0547293044) y1))))) 
(and (or (<= (+ x2 0.0985725424) x3) (or (<= (+ x3 0.9709592124) x2) (or (>= (- y2 0.969410017) y3) (or (>= (- y3 0.7783083337) y2))))) 
(and (or (<= (+ x2 0.0985725424) x4) (or (<= (+ x4 0.236225381) x2) (or (>= (- y2 0.969410017) y4) (or (>= (- y4 0.7449309743) y2))))) 
(and (or (<= (+ x2 0.0985725424) x5) (or (<= (+ x5 0.0608508372) x2) (or (>= (- y2 0.969410017) y5) (or (>= (- y5 0.6187957623) y2))))) 
(and (or (<= (+ x2 0.0985725424) x6) (or (<= (+ x6 0.7834006029) x2) (or (>= (- y2 0.969410017) y6) (or (>= (- y6 0.5778834244) y2))))) 
(and (or (<= (+ x2 0.0985725424) x7) (or (<= (+ x7 0.1642348961) x2) (or (>= (- y2 0.969410017) y7) (or (>= (- y7 0.5672329321) y2))))) 
(and (or (<= (+ x2 0.0985725424) x8) (or (<= (+ x8 0.5045649129) x2) (or (>= (- y2 0.969410017) y8) (or (>= (- y8 0.5505089352) y2))))) 
(and (or (<= (+ x2 0.0985725424) x9) (or (<= (+ x9 0.5621124063) x2) (or (>= (- y2 0.969410017) y9) (or (>= (- y9 0.5041877586) y2))))) 
(and (or (<= (+ x2 0.0985725424) x10) (or (<= (+ x10 0.974554139) x2) (or (>= (- y2 0.969410017) y10) (or (>= (- y10 0.4585875272) y2))))) 
(and (or (<= (+ x2 0.0985725424) x11) (or (<= (+ x11 0.5546128059) x2) (or (>= (- y2 0.969410017) y11) (or (>= (- y11 0.2784599677) y2))))) 
(and (or (<= (+ x2 0.0985725424) x12) (or (<= (+ x12 0.3484070273) x2) (or (>= (- y2 0.969410017) y12) (or (>= (- y12 0.2112766489) y2))))) 
(and (or (<= (+ x2 0.0985725424) x13) (or (<= (+ x13 0.8656357559) x2) (or (>= (- y2 0.969410017) y13) (or (>= (- y13 0.1525662631) y2))))) 
(and (or (<= (+ x2 0.0985725424) x14) (or (<= (+ x14 0.7712377787) x2) (or (>= (- y2 0.969410017) y14) (or (>= (- y14 0.0547293044) y2))))) 
(and (or (<= (+ x3 0.9709592124) x4) (or (<= (+ x4 0.236225381) x3) (or (>= (- y3 0.7783083337) y4) (or (>= (- y4 0.7449309743) y3))))) 
(and (or (<= (+ x3 0.9709592124) x5) (or (<= (+ x5 0.0608508372) x3) (or (>= (- y3 0.7783083337) y5) (or (>= (- y5 0.6187957623) y3))))) 
(and (or (<= (+ x3 0.9709592124) x6) (or (<= (+ x6 0.7834006029) x3) (or (>= (- y3 0.7783083337) y6) (or (>= (- y6 0.5778834244) y3))))) 
(and (or (<= (+ x3 0.9709592124) x7) (or (<= (+ x7 0.1642348961) x3) (or (>= (- y3 0.7783083337) y7) (or (>= (- y7 0.5672329321) y3))))) 
(and (or (<= (+ x3 0.9709592124) x8) (or (<= (+ x8 0.5045649129) x3) (or (>= (- y3 0.7783083337) y8) (or (>= (- y8 0.5505089352) y3))))) 
(and (or (<= (+ x3 0.9709592124) x9) (or (<= (+ x9 0.5621124063) x3) (or (>= (- y3 0.7783083337) y9) (or (>= (- y9 0.5041877586) y3))))) 
(and (or (<= (+ x3 0.9709592124) x10) (or (<= (+ x10 0.974554139) x3) (or (>= (- y3 0.7783083337) y10) (or (>= (- y10 0.4585875272) y3))))) 
(and (or (<= (+ x3 0.9709592124) x11) (or (<= (+ x11 0.5546128059) x3) (or (>= (- y3 0.7783083337) y11) (or (>= (- y11 0.2784599677) y3))))) 
(and (or (<= (+ x3 0.9709592124) x12) (or (<= (+ x12 0.3484070273) x3) (or (>= (- y3 0.7783083337) y12) (or (>= (- y12 0.2112766489) y3))))) 
(and (or (<= (+ x3 0.9709592124) x13) (or (<= (+ x13 0.8656357559) x3) (or (>= (- y3 0.7783083337) y13) (or (>= (- y13 0.1525662631) y3))))) 
(and (or (<= (+ x3 0.9709592124) x14) (or (<= (+ x14 0.7712377787) x3) (or (>= (- y3 0.7783083337) y14) (or (>= (- y14 0.0547293044) y3))))) 
(and (or (<= (+ x4 0.236225381) x5) (or (<= (+ x5 0.0608508372) x4) (or (>= (- y4 0.7449309743) y5) (or (>= (- y5 0.6187957623) y4))))) 
(and (or (<= (+ x4 0.236225381) x6) (or (<= (+ x6 0.7834006029) x4) (or (>= (- y4 0.7449309743) y6) (or (>= (- y6 0.5778834244) y4))))) 
(and (or (<= (+ x4 0.236225381) x7) (or (<= (+ x7 0.1642348961) x4) (or (>= (- y4 0.7449309743) y7) (or (>= (- y7 0.5672329321) y4))))) 
(and (or (<= (+ x4 0.236225381) x8) (or (<= (+ x8 0.5045649129) x4) (or (>= (- y4 0.7449309743) y8) (or (>= (- y8 0.5505089352) y4))))) 
(and (or (<= (+ x4 0.236225381) x9) (or (<= (+ x9 0.5621124063) x4) (or (>= (- y4 0.7449309743) y9) (or (>= (- y9 0.5041877586) y4))))) 
(and (or (<= (+ x4 0.236225381) x10) (or (<= (+ x10 0.974554139) x4) (or (>= (- y4 0.7449309743) y10) (or (>= (- y10 0.4585875272) y4))))) 
(and (or (<= (+ x4 0.236225381) x11) (or (<= (+ x11 0.5546128059) x4) (or (>= (- y4 0.7449309743) y11) (or (>= (- y11 0.2784599677) y4))))) 
(and (or (<= (+ x4 0.236225381) x12) (or (<= (+ x12 0.3484070273) x4) (or (>= (- y4 0.7449309743) y12) (or (>= (- y12 0.2112766489) y4))))) 
(and (or (<= (+ x4 0.236225381) x13) (or (<= (+ x13 0.8656357559) x4) (or (>= (- y4 0.7449309743) y13) (or (>= (- y13 0.1525662631) y4))))) 
(and (or (<= (+ x4 0.236225381) x14) (or (<= (+ x14 0.7712377787) x4) (or (>= (- y4 0.7449309743) y14) (or (>= (- y14 0.0547293044) y4))))) 
(and (or (<= (+ x5 0.0608508372) x6) (or (<= (+ x6 0.7834006029) x5) (or (>= (- y5 0.6187957623) y6) (or (>= (- y6 0.5778834244) y5))))) 
(and (or (<= (+ x5 0.0608508372) x7) (or (<= (+ x7 0.1642348961) x5) (or (>= (- y5 0.6187957623) y7) (or (>= (- y7 0.5672329321) y5))))) 
(and (or (<= (+ x5 0.0608508372) x8) (or (<= (+ x8 0.5045649129) x5) (or (>= (- y5 0.6187957623) y8) (or (>= (- y8 0.5505089352) y5))))) 
(and (or (<= (+ x5 0.0608508372) x9) (or (<= (+ x9 0.5621124063) x5) (or (>= (- y5 0.6187957623) y9) (or (>= (- y9 0.5041877586) y5))))) 
(and (or (<= (+ x5 0.0608508372) x10) (or (<= (+ x10 0.974554139) x5) (or (>= (- y5 0.6187957623) y10) (or (>= (- y10 0.4585875272) y5))))) 
(and (or (<= (+ x5 0.0608508372) x11) (or (<= (+ x11 0.5546128059) x5) (or (>= (- y5 0.6187957623) y11) (or (>= (- y11 0.2784599677) y5))))) 
(and (or (<= (+ x5 0.0608508372) x12) (or (<= (+ x12 0.3484070273) x5) (or (>= (- y5 0.6187957623) y12) (or (>= (- y12 0.2112766489) y5))))) 
(and (or (<= (+ x5 0.0608508372) x13) (or (<= (+ x13 0.8656357559) x5) (or (>= (- y5 0.6187957623) y13) (or (>= (- y13 0.1525662631) y5))))) 
(and (or (<= (+ x5 0.0608508372) x14) (or (<= (+ x14 0.7712377787) x5) (or (>= (- y5 0.6187957623) y14) (or (>= (- y14 0.0547293044) y5))))) 
(and (or (<= (+ x6 0.7834006029) x7) (or (<= (+ x7 0.1642348961) x6) (or (>= (- y6 0.5778834244) y7) (or (>= (- y7 0.5672329321) y6))))) 
(and (or (<= (+ x6 0.7834006029) x8) (or (<= (+ x8 0.5045649129) x6) (or (>= (- y6 0.5778834244) y8) (or (>= (- y8 0.5505089352) y6))))) 
(and (or (<= (+ x6 0.7834006029) x9) (or (<= (+ x9 0.5621124063) x6) (or (>= (- y6 0.5778834244) y9) (or (>= (- y9 0.5041877586) y6))))) 
(and (or (<= (+ x6 0.7834006029) x10) (or (<= (+ x10 0.974554139) x6) (or (>= (- y6 0.5778834244) y10) (or (>= (- y10 0.4585875272) y6))))) 
(and (or (<= (+ x6 0.7834006029) x11) (or (<= (+ x11 0.5546128059) x6) (or (>= (- y6 0.5778834244) y11) (or (>= (- y11 0.2784599677) y6))))) 
(and (or (<= (+ x6 0.7834006029) x12) (or (<= (+ x12 0.3484070273) x6) (or (>= (- y6 0.5778834244) y12) (or (>= (- y12 0.2112766489) y6))))) 
(and (or (<= (+ x6 0.7834006029) x13) (or (<= (+ x13 0.8656357559) x6) (or (>= (- y6 0.5778834244) y13) (or (>= (- y13 0.1525662631) y6))))) 
(and (or (<= (+ x6 0.7834006029) x14) (or (<= (+ x14 0.7712377787) x6) (or (>= (- y6 0.5778834244) y14) (or (>= (- y14 0.0547293044) y6))))) 
(and (or (<= (+ x7 0.1642348961) x8) (or (<= (+ x8 0.5045649129) x7) (or (>= (- y7 0.5672329321) y8) (or (>= (- y8 0.5505089352) y7))))) 
(and (or (<= (+ x7 0.1642348961) x9) (or (<= (+ x9 0.5621124063) x7) (or (>= (- y7 0.5672329321) y9) (or (>= (- y9 0.5041877586) y7))))) 
(and (or (<= (+ x7 0.1642348961) x10) (or (<= (+ x10 0.974554139) x7) (or (>= (- y7 0.5672329321) y10) (or (>= (- y10 0.4585875272) y7))))) 
(and (or (<= (+ x7 0.1642348961) x11) (or (<= (+ x11 0.5546128059) x7) (or (>= (- y7 0.5672329321) y11) (or (>= (- y11 0.2784599677) y7))))) 
(and (or (<= (+ x7 0.1642348961) x12) (or (<= (+ x12 0.3484070273) x7) (or (>= (- y7 0.5672329321) y12) (or (>= (- y12 0.2112766489) y7))))) 
(and (or (<= (+ x7 0.1642348961) x13) (or (<= (+ x13 0.8656357559) x7) (or (>= (- y7 0.5672329321) y13) (or (>= (- y13 0.1525662631) y7))))) 
(and (or (<= (+ x7 0.1642348961) x14) (or (<= (+ x14 0.7712377787) x7) (or (>= (- y7 0.5672329321) y14) (or (>= (- y14 0.0547293044) y7))))) 
(and (or (<= (+ x8 0.5045649129) x9) (or (<= (+ x9 0.5621124063) x8) (or (>= (- y8 0.5505089352) y9) (or (>= (- y9 0.5041877586) y8))))) 
(and (or (<= (+ x8 0.5045649129) x10) (or (<= (+ x10 0.974554139) x8) (or (>= (- y8 0.5505089352) y10) (or (>= (- y10 0.4585875272) y8))))) 
(and (or (<= (+ x8 0.5045649129) x11) (or (<= (+ x11 0.5546128059) x8) (or (>= (- y8 0.5505089352) y11) (or (>= (- y11 0.2784599677) y8))))) 
(and (or (<= (+ x8 0.5045649129) x12) (or (<= (+ x12 0.3484070273) x8) (or (>= (- y8 0.5505089352) y12) (or (>= (- y12 0.2112766489) y8))))) 
(and (or (<= (+ x8 0.5045649129) x13) (or (<= (+ x13 0.8656357559) x8) (or (>= (- y8 0.5505089352) y13) (or (>= (- y13 0.1525662631) y8))))) 
(and (or (<= (+ x8 0.5045649129) x14) (or (<= (+ x14 0.7712377787) x8) (or (>= (- y8 0.5505089352) y14) (or (>= (- y14 0.0547293044) y8))))) 
(and (or (<= (+ x9 0.5621124063) x10) (or (<= (+ x10 0.974554139) x9) (or (>= (- y9 0.5041877586) y10) (or (>= (- y10 0.4585875272) y9))))) 
(and (or (<= (+ x9 0.5621124063) x11) (or (<= (+ x11 0.5546128059) x9) (or (>= (- y9 0.5041877586) y11) (or (>= (- y11 0.2784599677) y9))))) 
(and (or (<= (+ x9 0.5621124063) x12) (or (<= (+ x12 0.3484070273) x9) (or (>= (- y9 0.5041877586) y12) (or (>= (- y12 0.2112766489) y9))))) 
(and (or (<= (+ x9 0.5621124063) x13) (or (<= (+ x13 0.8656357559) x9) (or (>= (- y9 0.5041877586) y13) (or (>= (- y13 0.1525662631) y9))))) 
(and (or (<= (+ x9 0.5621124063) x14) (or (<= (+ x14 0.7712377787) x9) (or (>= (- y9 0.5041877586) y14) (or (>= (- y14 0.0547293044) y9))))) 
(and (or (<= (+ x10 0.974554139) x11) (or (<= (+ x11 0.5546128059) x10) (or (>= (- y10 0.4585875272) y11) (or (>= (- y11 0.2784599677) y10))))) 
(and (or (<= (+ x10 0.974554139) x12) (or (<= (+ x12 0.3484070273) x10) (or (>= (- y10 0.4585875272) y12) (or (>= (- y12 0.2112766489) y10))))) 
(and (or (<= (+ x10 0.974554139) x13) (or (<= (+ x13 0.8656357559) x10) (or (>= (- y10 0.4585875272) y13) (or (>= (- y13 0.1525662631) y10))))) 
(and (or (<= (+ x10 0.974554139) x14) (or (<= (+ x14 0.7712377787) x10) (or (>= (- y10 0.4585875272) y14) (or (>= (- y14 0.0547293044) y10))))) 
(and (or (<= (+ x11 0.5546128059) x12) (or (<= (+ x12 0.3484070273) x11) (or (>= (- y11 0.2784599677) y12) (or (>= (- y12 0.2112766489) y11))))) 
(and (or (<= (+ x11 0.5546128059) x13) (or (<= (+ x13 0.8656357559) x11) (or (>= (- y11 0.2784599677) y13) (or (>= (- y13 0.1525662631) y11))))) 
(and (or (<= (+ x11 0.5546128059) x14) (or (<= (+ x14 0.7712377787) x11) (or (>= (- y11 0.2784599677) y14) (or (>= (- y14 0.0547293044) y11))))) 
(and (or (<= (+ x12 0.3484070273) x13) (or (<= (+ x13 0.8656357559) x12) (or (>= (- y12 0.2112766489) y13) (or (>= (- y13 0.1525662631) y12))))) 
(and (or (<= (+ x12 0.3484070273) x14) (or (<= (+ x14 0.7712377787) x12) (or (>= (- y12 0.2112766489) y14) (or (>= (- y14 0.0547293044) y12))))) 
(and (or (<= (+ x13 0.8656357559) x14) (or (<= (+ x14 0.7712377787) x13) (or (>= (- y13 0.1525662631) y14) (or (>= (- y14 0.0547293044) y13))))) )))))))))))))))))))))))))))))))))))))))))))))))))))))))))))))))))))))))))))))))))))))))))))))))))))))))))))))))))))))))))))))))))))))))))))))))))))))))))))))))))))))))))))))))))))))))))))))))))))))))))))))))))))))))
(minimize c)
(check-sat)
(get-objectives)
(exit)
